nNurses = 126;
nHours = 30;
minHours = 6;
maxHours = 8;
maxConsec = 6;
maxPresence = 15;
demand = [19, 19, 17, 17, 19, 22, 22, 18, 16, 12, 7, 11, 9, 11, 7, 10, 15, 11, 11, 8, 6, 8, 12, 14, 9, 10, 11, 14, 11, 16];
